(set-logic QF_S)
(declare-fun var_0xINPUT_166877 () String)
(assert (and (= (len var_0xINPUT_166877) 0) (= (len var_0xINPUT_166877) 0) (not (= var_0xINPUT_166877 "VZCCTTfYY8"))))
(check-sat var_0xINPUT_166877)